
Gurobi 10.0.3 (linux64, gurobi_cl) logging started Thu Nov  9 12:52:19 2023

Set parameter Username
Set parameter TimeLimit to value 3600
Set parameter LogFile to value "RCPSP_1405.log"
Set parameter Threads to value 32
Academic license - for non-commercial use only - expires 2024-10-30
Using license file /home/jrivera6/gurobi-licenses/v1003/compute-0-38/gurobi.lic

Gurobi Optimizer version 10.0.3 build v10.0.3rc0 (linux64)
Copyright (c) 2023, Gurobi Optimization, LLC

Read MPS format model from file RCPSP_1405.mps
Reading time = 0.05 seconds
RCPSP_1405: 42975 rows, 17020 columns, 159179 nonzeros

CPU model: Intel(R) Xeon(R) Gold 6242 CPU @ 2.80GHz, instruction set [SSE2|AVX|AVX2|AVX512]
Thread count: 32 physical cores, 32 logical processors, using up to 32 threads

Optimize a model with 42975 rows, 17020 columns and 159179 nonzeros
Model fingerprint: 0x357e21e4
Variable types: 92 continuous, 16928 integer (16928 binary)
Coefficient statistics:
  Matrix range     [1e+00, 5e+02]
  Objective range  [1e+00, 1e+00]
  Bounds range     [1e+00, 1e+00]
  RHS range        [1e+00, 6e+02]
Presolve removed 7284 rows and 1313 columns (presolve time = 5s) ...
Presolve removed 12143 rows and 3344 columns
Presolve time: 7.93s
Presolved: 30832 rows, 13676 columns, 119764 nonzeros
Variable types: 91 continuous, 13585 integer (13585 binary)

Deterministic concurrent LP optimizer: primal and dual simplex (primal and dual model)
Showing first log only...

Root relaxation presolved: 30832 rows, 13676 columns, 119764 nonzeros


Root simplex log...

Iteration    Objective       Primal Inf.    Dual Inf.      Time
       0    9.9973528e+01   8.618420e-03   1.172207e+08      9s
Concurrent spin time: 0.15s

Solved with dual simplex (primal model)

Root relaxation: objective 9.800000e+01, 4342 iterations, 0.94 seconds (0.11 work units)
Total elapsed time = 10.81s

    Nodes    |    Current Node    |     Objective Bounds      |     Work
 Expl Unexpl |  Obj  Depth IntInf | Incumbent    BestBd   Gap | It/Node Time

     0     0   98.00000    0  518          -   98.00000      -     -   13s
     0     0   98.00000    0  516          -   98.00000      -     -   13s
     0     0   98.00000    0 1035          -   98.00000      -     -   33s
     0     0   98.00000    0 1061          -   98.00000      -     -   34s
     0     0   98.00000    0 1032          -   98.00000      -     -   34s
     0     0   98.12295    0  721          -   98.12295      -     -   45s
     0     0   98.12295    0  723          -   98.12295      -     -   45s
     0     0   99.27347    0  878          -   99.27347      -     -   47s
     0     0   99.27347    0  784          -   99.27347      -     -   47s
     0     0   99.34043    0 1031          -   99.34043      -     -   49s
     0     0   99.34043    0 1064          -   99.34043      -     -   52s
     0     0   99.34043    0 1045          -   99.34043      -     -   52s
     0     0   99.34043    0 1151          -   99.34043      -     -   54s
     0     0   99.34043    0 1153          -   99.34043      -     -   57s
     0     0   99.34043    0 1102          -   99.34043      -     -   57s
     0     0   99.34043    0 1098          -   99.34043      -     -   57s
     0     0   99.34043    0 1170          -   99.34043      -     -   59s
     0     0   99.34043    0 1163          -   99.34043      -     -   60s
     0     0   99.34043    0 1244          -   99.34043      -     -   63s
     0     0   99.34043    0 1226          -   99.34043      -     -   66s
     0     0   99.34043    0 1111          -   99.34043      -     -   67s
H    0     0                     548.0000000   99.34043  81.9%     -   68s
     0     0   99.34043    0 1250  548.00000   99.34043  81.9%     -   69s
     0     0   99.34043    0  458  548.00000   99.34043  81.9%     -   85s
     0     0   99.34043    0  934  548.00000   99.34043  81.9%     -   98s
H    0     0                     429.0000000   99.34043  76.8%     -  105s
     0     0   99.34043    0  954  429.00000   99.34043  76.8%     -  106s
     0     0   99.34043    0 1043  429.00000   99.34043  76.8%     -  108s
     0     0   99.34043    0 1001  429.00000   99.34043  76.8%     -  108s
     0     0   99.34043    0 1001  429.00000   99.34043  76.8%     -  108s
     0     0   99.34043    0  912  429.00000   99.34043  76.8%     -  110s
     0     0   99.34043    0  991  429.00000   99.34043  76.8%     -  112s
     0     0   99.34043    0  705  429.00000   99.34043  76.8%     -  124s
     0     0   99.34043    0  701  429.00000   99.34043  76.8%     -  124s
H    0     0                     376.0000000   99.34043  73.6%     -  126s
     0     0   99.34043    0  947  376.00000   99.34043  73.6%     -  127s
     0     0   99.34043    0  925  376.00000   99.34043  73.6%     -  127s
     0     0   99.34043    0 1205  376.00000   99.34043  73.6%     -  131s
     0     0   99.34043    0 1185  376.00000   99.34043  73.6%     -  131s
     0     0   99.34043    0 1162  376.00000   99.34043  73.6%     -  132s
     0     0   99.34043    0 1158  376.00000   99.34043  73.6%     -  132s
     0     0   99.34043    0 1191  376.00000   99.34043  73.6%     -  136s
     0     0   99.34043    0 1058  376.00000   99.34043  73.6%     -  136s
     0     0   99.34043    0 1103  376.00000   99.34043  73.6%     -  139s
     0     0   99.34043    0 1093  376.00000   99.34043  73.6%     -  140s
H    0     0                     341.0000000   99.34043  70.9%     -  197s
H    0     0                     327.0000000   99.34043  69.6%     -  206s
H    0     0                     308.0000000   99.34043  67.7%     -  206s
     0     0   99.34043    0 1176  308.00000   99.34043  67.7%     -  207s
     0     0   99.34043    0 1209  308.00000   99.34043  67.7%     -  210s
     0     0   99.34043    0 1207  308.00000   99.34043  67.7%     -  210s
     0     0   99.34043    0 1244  308.00000   99.34043  67.7%     -  214s
     0     0   99.34043    0 1238  308.00000   99.34043  67.7%     -  214s
H    0     0                     291.0000000   99.34043  65.9%     -  219s
     0     0   99.34043    0 1237  291.00000   99.34043  65.9%     -  220s
     0     0   99.34043    0 1206  291.00000   99.34043  65.9%     -  220s
H    0     0                     283.0000000   99.34043  64.9%     -  226s
     0     0   99.34043    0 1247  283.00000   99.34043  64.9%     -  232s
     0     0   99.34043    0 1246  283.00000   99.34043  64.9%     -  232s
     0     0   99.34043    0 1294  283.00000   99.34043  64.9%     -  235s
     0     0   99.34043    0 1259  283.00000   99.34043  64.9%     -  241s
H    0     0                     268.0000000   99.34043  62.9%     -  243s
     0     0   99.34043    0 1311  268.00000   99.34043  62.9%     -  244s
     0     0   99.34043    0 1294  268.00000   99.34043  62.9%     -  244s
     0     0   99.34043    0 1297  268.00000   99.34043  62.9%     -  254s
     0     0   99.34043    0 1283  268.00000   99.34043  62.9%     -  254s
     0     0   99.34043    0 1345  268.00000   99.34043  62.9%     -  261s
     0     0   99.34043    0 1294  268.00000   99.34043  62.9%     -  261s
     0     0   99.34043    0  754  268.00000   99.34043  62.9%     -  277s
     0     0   99.34043    0  711  268.00000   99.34043  62.9%     -  277s
H    0     0                     255.0000000   99.34043  61.0%     -  279s
H    0     0                     252.0000000   99.34043  60.6%     -  281s
     0     0   99.34043    0 1062  252.00000   99.34043  60.6%     -  281s
     0     0   99.34043    0 1029  252.00000   99.34043  60.6%     -  282s
     0     0   99.34043    0 1027  252.00000   99.34043  60.6%     -  282s
H    0     0                     251.0000000   99.34043  60.4%     -  293s
     0     0   99.34043    0  859  251.00000   99.34043  60.4%     -  295s
     0     0   99.34043    0  852  251.00000   99.34043  60.4%     -  295s
     0     0   99.34043    0 1043  251.00000   99.34043  60.4%     -  299s
     0     0   99.34043    0 1039  251.00000   99.34043  60.4%     -  299s
     0     0   99.34043    0  969  251.00000   99.34043  60.4%     -  308s
     0     0   99.34043    0  967  251.00000   99.34043  60.4%     -  308s
     0     0   99.34043    0  517  251.00000   99.34043  60.4%     -  315s
H    0     0                     248.0000000   99.34043  59.9%     -  322s
H    0     0                     244.0000000   99.34043  59.3%     -  323s
     0     2   99.34043    0  478  244.00000   99.34043  59.3%     -  336s
     1     4   99.34043    1  506  244.00000   99.34043  59.3%  4886  341s
     3     8   99.55556    2  986  244.00000   99.45455  59.2%  2545  354s
     7    15  100.00000    3 1285  244.00000  100.00000  59.0%  2811  371s
    15    24  100.00000    4 1294  244.00000  100.00000  59.0%  3250  390s
H   30    37                     241.0000000  100.00000  58.5%  2737  582s
H   30    37                     237.0000000  100.00000  57.8%  2737  582s
H   31    37                     236.0000000  100.00000  57.6%  2767  582s
H   31    37                     232.0000000  100.00000  56.9%  2767  582s
H   33    37                     229.0000000  100.00000  56.3%  2760  582s
H   50    37                     228.0000000  100.00000  56.1%  2478  582s
    54    49  100.00000    6 1316  228.00000  100.00000  56.1%  2601  604s
H   86    68                     222.0000000  100.00000  55.0%  2278  643s
H  109    68                     219.0000000  100.00000  54.3%  2178  643s
   118    93  101.27273    8 1051  219.00000  100.00000  54.3%  2161  666s
   150   122  100.00436    8 1325  219.00000  100.00436  54.3%  2119  685s
   182   168  100.45455    9 1417  219.00000  100.45455  54.1%  2047  703s
   232   217  100.45455   10 1406  219.00000  100.45455  54.1%  1730  719s
   283   263  100.83333   12 1380  219.00000  100.83333  54.0%  1502  734s
   333   307  100.83333   14 1298  219.00000  100.83333  54.0%  1341  772s
   383   363  101.55556   16 1213  219.00000  100.83333  54.0%  1230  787s
   450   415  100.83333   16 1328  219.00000  100.83333  54.0%  1113  802s
   516   484  102.00000   17 1259  219.00000  100.83333  54.0%  1019  818s
   597   560  108.00000   17 1149  219.00000  100.83333  54.0%   924  828s
   678   636  108.00000   18 1067  219.00000  100.83333  54.0%   840  843s
   774   716  108.00000   21 1094  219.00000  100.83333  54.0%   768  863s
   860   782  108.00000   22 1104  219.00000  100.83333  54.0%   732  878s
   933   878  108.00000   23 1104  219.00000  100.83333  54.0%   712  899s
  1059   947  117.00000   27 1004  219.00000  100.83333  54.0%   658  917s
H 1139  1002                     212.0000000  100.83333  52.4%   643  945s
H 1143  1002                     211.0000000  100.83333  52.2%   642  945s
H 1144  1002                     210.0000000  100.83333  52.0%   643  945s
H 1160  1002                     209.0000000  100.83333  51.8%   637  945s
  1200  1145  117.00000   30 1003  209.00000  100.83333  51.8%   623  965s
  1361  1241  117.00000   33 1050  209.00000  100.83333  51.8%   570  989s
  1486  1337  117.00000   34 1039  209.00000  100.83333  51.8%   552 1004s
  1595  1457  117.00000   35 1025  209.00000  100.83333  51.8%   538 1025s
  1755  1613  117.00000   36  969  209.00000  100.83333  51.8%   513 1048s
  1947  1829  117.00000   37  995  209.00000  100.83333  51.8%   483 1071s
H 2189  1923                     207.0000000  100.83333  51.3%   445 1099s
H 2197  1923                     206.0000000  100.83333  51.1%   445 1099s
H 2201  1923                     205.0000000  100.83333  50.8%   446 1099s
  2298  2137  117.00000   43  978  205.00000  100.83333  50.8%   437 1117s
  2535  2330  117.00000   44 1043  205.00000  100.83333  50.8%   410 1140s
  2779  2494  117.00000   45  920  205.00000  100.83333  50.8%   390 1166s
  2990  2495  113.00000   50 1250  205.00000  100.83333  50.8%   379 1232s
  2992  2496  126.00000   84  483  205.00000  100.83333  50.8%   379 1240s
  2993  2497  109.00000   28 1036  205.00000  100.83333  50.8%   379 1265s
H 2993  2372                     204.0000000  100.83333  50.6%   379 1266s
H 2994  2254                     203.0000000  100.83333  50.3%   379 1270s
  2996  2255  116.00000   59 1066  203.00000  100.83333  50.3%   378 1280s
  2997  2256  110.00000   15 1125  203.00000  100.83333  50.3%   378 1286s
  2998  2256  139.00000   69 1148  203.00000  100.83333  50.3%   378 1294s
  2999  2257  107.00000   15 1219  203.00000  100.83333  50.3%   378 1299s
  3000  2258  113.00000   24 1231  203.00000  100.83333  50.3%   378 1306s
  3001  2258  132.00000   45 1285  203.00000  100.83333  50.3%   378 1310s
  3003  2260  132.00000  120 1271  203.00000  100.83333  50.3%   377 1318s
  3004  2260  109.00000   15 1374  203.00000  100.83333  50.3%   377 1321s
H 3005  2148                     200.0000000  100.83333  49.6%   377 1328s
  3007  2149  109.00000   45 1335  200.00000  101.00000  49.5%   377 1333s
  3008  2150  107.00000   29 1355  200.00000  101.00000  49.5%   377 1340s
  3009  2151  106.00000   17 1315  200.00000  101.00000  49.5%   377 1346s
  3010  2151  116.00000   63 1301  200.00000  101.00000  49.5%   377 1352s
  3011  2152  112.00000   49 1340  200.00000  101.00000  49.5%   376 1356s
  3012  2153  130.00000   85 1277  200.00000  101.00000  49.5%   376 1361s
  3013  2153  110.00000   40 1312  200.00000  101.00000  49.5%   376 1365s
  3014  2154  113.00000   33 1302  200.00000  101.00000  49.5%   376 1371s
  3015  2155  112.00000   65 1296  200.00000  101.00000  49.5%   376 1378s
  3016  2155  112.00000   31 1255  200.00000  101.00000  49.5%   376 1384s
  3017  2156  118.00000   46 1302  200.00000  101.00000  49.5%   376 1390s
  3018  2157  127.00000   51 1342  200.00000  101.00000  49.5%   376 1396s
  3019  2157  115.00000   34 1315  200.00000  101.00000  49.5%   375 1403s
  3020  2158  122.00000   47 1264  200.00000  101.00000  49.5%   375 1409s
  3021  2159  115.00000   17 1286  200.00000  101.00000  49.5%   375 1418s
H 3021  2050                     200.0000000  101.00000  49.5%   375 1430s
H 3022  1947                     199.0000000  101.00000  49.2%   375 1431s
  3024  1949  121.00000   76 1288  199.00000  101.00000  49.2%   375 1436s
  3025  1949  108.00000   31 1234  199.00000  101.00000  49.2%   375 1441s
H 3026  1852                     199.0000000  101.00000  49.2%   375 1451s
  3028  1856  101.00000   15  519  199.00000  101.00000  49.2%   411 1478s
  3030  1860  101.00000   16  969  199.00000  101.00000  49.2%   411 1497s
  3034  1866  101.00000   17 1003  199.00000  101.00000  49.2%   414 1523s
  3042  1880  101.00000   18 1141  199.00000  101.00000  49.2%   420 1569s
  3058  1900  101.00000   19 1227  199.00000  101.00000  49.2%   442 1743s
H 3074  1802                     198.0000000  101.00000  49.0%   458 1743s
  3090  1829  101.00000   20 1195  198.00000  101.00000  49.0%   481 2114s
H 3122  1760                     197.0000000  101.00000  48.7%   501 2375s
H 3124  1675                     194.0000000  101.00000  47.9%   503 2375s
H 3136  1591                     191.0000000  101.00000  47.1%   509 2375s
  3154  1616  101.00000   21 1242  191.00000  101.00000  47.1%   516 2391s
  3186  1636  101.00000   22 1204  191.00000  101.00000  47.1%   518 2406s
  3218  1674  111.56604   22 1037  191.00000  101.00000  47.1%   520 2421s
  3276  1702  101.00000   23 1200  191.00000  101.00000  47.1%   522 2438s
  3337  1720  101.00000   24 1190  191.00000  101.00000  47.1%   522 2454s
  3394  1725  101.00000   24 1215  191.00000  101.00000  47.1%   520 2488s
  3438  1750  101.20722   25 1260  191.00000  101.00000  47.1%   522 2523s
  3491  1812  101.00264   25 1214  191.00000  101.00000  47.1%   527 2542s
  3572  1826  101.40766   26 1295  191.00000  101.00000  47.1%   523 2579s
  3623  1878  102.40000   26 1076  191.00000  101.00000  47.1%   528 2610s
  3694  1972  102.40000   27  997  191.00000  101.00000  47.1%   524 2623s
  3816  2053  108.00000   28 1181  191.00000  101.00000  47.1%   517 2642s
  3951  2144  103.00000   28  969  191.00000  101.00000  47.1%   505 2654s
H 4102  2043                     191.0000000  101.00000  47.1%   492 3137s
  4121  2037  112.97957   31  869  191.00000  101.00000  47.1%   492 3144s
  4136  2071  108.00000   29 1066  191.00000  101.00000  47.1%   492 3275s
  4197  2117  108.00000   30 1074  191.00000  101.00000  47.1%   491 3574s
  4267  2161  112.00000   33  977  191.00000  101.00000  47.1%   488 3610s

Cutting planes:
  Learned: 25
  Gomory: 62
  Lift-and-project: 6
  Cover: 238
  Implied bound: 102
  Projected implied bound: 4
  Clique: 55
  MIR: 580
  StrongCG: 15
  Flow cover: 883
  Zero half: 19
  RLT: 541
  Relax-and-lift: 488

Explored 4337 nodes (2260890 simplex iterations) in 3641.26 seconds (356.37 work units)
Thread count was 32 (of 32 available processors)

Solution count 10: 191 191 194 ... 203

Time limit reached
Best objective 1.909999999616e+02, best bound 1.010000000000e+02, gap 47.1204%

Wrote result file 'RCPSP_1405.sol'

